
Gurobi 7.5.2 (linux64) logging started Sat Jun 23 16:25:59 2018

Changed value of parameter LogFile to result/ilp/simNo_5-n_100-m_40-s_7-minVAF_0.05-cov_2000-k_2-fn_0.15-fp_0.0001-na_0.15.ILP.gurobiSolverLog
   Prev: gurobi.log  Default: 
Changed value of parameter TimeLimit to 86400.0
   Prev: 1e+100  Min: 0.0  Max: 1e+100  Default: 1e+100
Optimize a model with 1265601 rows, 330440 columns and 3489120 nonzeros
Variable types: 0 continuous, 330440 integer (330440 binary)
Coefficient statistics:
  Matrix range     [9e-04, 2e+00]
  Objective range  [2e+00, 1e+01]
  Bounds range     [1e+00, 1e+00]
  RHS range        [9e-02, 2e+00]
Found heuristic solution: objective -7005.907812
Presolve removed 376371 rows and 227386 columns (presolve time = 5s) ...
Presolve removed 393929 rows and 227386 columns (presolve time = 12s) ...
Presolve removed 394157 rows and 227386 columns (presolve time = 15s) ...
Presolve removed 394157 rows and 227386 columns (presolve time = 20s) ...
Presolve removed 394157 rows and 227386 columns (presolve time = 25s) ...
Presolve removed 394157 rows and 227386 columns (presolve time = 33s) ...
Presolve removed 394157 rows and 227386 columns (presolve time = 35s) ...
Presolve removed 394157 rows and 227386 columns (presolve time = 40s) ...
Presolve removed 394157 rows and 227386 columns (presolve time = 45s) ...
Presolve removed 394157 rows and 227386 columns (presolve time = 50s) ...
Presolve removed 394157 rows and 227386 columns (presolve time = 55s) ...
Presolve removed 394157 rows and 227386 columns (presolve time = 60s) ...
Presolve removed 394157 rows and 227386 columns (presolve time = 65s) ...
Presolve removed 394157 rows and 227386 columns
Presolve time: 68.38s
Presolved: 871444 rows, 103054 columns, 2426696 nonzeros
Variable types: 0 continuous, 103054 integer (103054 binary)
Presolved: 103054 rows, 974498 columns, 2529750 nonzeros

Presolve removed 103054 rows and 974498 columns

Root simplex log...

Iteration    Objective       Primal Inf.    Dual Inf.      Time
       0    2.8681829e+01   0.000000e+00   5.379700e+04     79s
    6713   -8.1437243e+01   0.000000e+00   4.823500e+03     80s
    7345   -8.5775746e+01   0.000000e+00   0.000000e+00     81s
    7345   -8.5775746e+01   0.000000e+00   0.000000e+00     84s

Root relaxation: objective -8.577575e+01, 7345 iterations, 11.82 seconds
Total elapsed time = 85.24s
Total elapsed time = 103.75s
Total elapsed time = 111.36s
Total elapsed time = 118.42s

    Nodes    |    Current Node    |     Objective Bounds      |     Work
 Expl Unexpl |  Obj  Depth IntInf | Incumbent    BestBd   Gap | It/Node Time

     0     0  -85.77575    0  365 -7005.9078  -85.77575  98.8%     -  124s
H    0     0                    -109.7986237  -85.77575  21.9%     -  131s
     0     0  -89.81136    0  356 -109.79862  -89.81136  18.2%     -  146s
     0     0  -92.50177    0  367 -109.79862  -92.50177  15.8%     -  171s
     0     0  -93.03985    0  339 -109.79862  -93.03985  15.3%     -  186s
     0     0  -93.84697    0  310 -109.79862  -93.84697  14.5%     -  199s
H    0     0                    -105.3374998  -93.84697  10.9%     -  205s
     0     0  -94.61804    0  365 -105.33750  -94.61804  10.2%     -  218s
H    0     0                    -103.3975450  -94.61804  8.49%     -  225s
     0     0  -94.95434    0  365 -103.39754  -94.95434  8.17%     -  234s
     0     0  -96.01180    0  379 -103.39754  -96.01180  7.14%     -  248s
     0     0  -96.05764    0  384 -103.39754  -96.05764  7.10%     -  258s
     0     0  -96.41837    0  351 -103.39754  -96.41837  6.75%     -  286s
     0     0  -96.41837    0  204 -103.39754  -96.41837  6.75%     -  487s
     0     0  -96.41837    0  108 -103.39754  -96.41837  6.75%     -  487s
H    0     0                    -102.6907127  -96.41837  6.11%     -  488s
     0     0  -97.07120    0   95 -102.69071  -97.07120  5.47%     -  488s
     0     0  -97.09608    0  103 -102.69071  -97.09608  5.45%     -  488s
     0     0  -97.86822    0  100 -102.69071  -97.86822  4.70%     -  488s
     0     0  -97.86822    0  101 -102.69071  -97.86822  4.70%     -  488s
     0     0  -98.20164    0   74 -102.69071  -98.20164  4.37%     -  489s
     0     0  -98.20164    0   75 -102.69071  -98.20164  4.37%     -  489s
     0     0  -98.20232    0  103 -102.69071  -98.20232  4.37%     -  489s
     0     0  -98.20965    0  102 -102.69071  -98.20965  4.36%     -  489s
     0     0  -98.38518    0  130 -102.69071  -98.38518  4.19%     -  490s
     0     0  -98.39551    0  130 -102.69071  -98.39551  4.18%     -  490s
     0     0  -98.39596    0  129 -102.69071  -98.39596  4.18%     -  490s
     0     0  -98.63684    0  119 -102.69071  -98.63684  3.95%     -  490s
     0     0  -98.74599    0  205 -102.69071  -98.74599  3.84%     -  491s
     0     0  -98.75657    0  133 -102.69071  -98.75657  3.83%     -  491s
     0     0  -98.75657    0  133 -102.69071  -98.75657  3.83%     -  491s
     0     0  -99.07370    0  169 -102.69071  -99.07370  3.52%     -  491s
     0     0  -99.11930    0  151 -102.69071  -99.11930  3.48%     -  492s
     0     0  -99.13078    0  151 -102.69071  -99.13078  3.47%     -  492s
     0     0  -99.13109    0  157 -102.69071  -99.13109  3.47%     -  492s
     0     0  -99.42310    0  137 -102.69071  -99.42310  3.18%     -  492s
     0     0  -99.43559    0  138 -102.69071  -99.43559  3.17%     -  492s
     0     0  -99.43559    0  138 -102.69071  -99.43559  3.17%     -  493s
     0     0 -100.02437    0  106 -102.69071 -100.02437  2.60%     -  493s
     0     0 -100.03491    0  131 -102.69071 -100.03491  2.59%     -  493s
     0     0 -100.04475    0  133 -102.69071 -100.04475  2.58%     -  493s
     0     0 -100.04475    0  132 -102.69071 -100.04475  2.58%     -  493s
     0     0 -100.15118    0  122 -102.69071 -100.15118  2.47%     -  494s
     0     0 -100.15118    0  123 -102.69071 -100.15118  2.47%     -  494s
     0     0 -100.51915    0  105 -102.69071 -100.51915  2.11%     -  494s
     0     0 -100.64923    0  129 -102.69071 -100.64923  1.99%     -  494s
     0     0 -100.76317    0  131 -102.69071 -100.76317  1.88%     -  494s
     0     0 -100.76382    0  147 -102.69071 -100.76382  1.88%     -  495s
     0     0 -100.78060    0  159 -102.69071 -100.78060  1.86%     -  495s
     0     0 -100.78060    0  151 -102.69071 -100.78060  1.86%     -  496s
     0     0 -100.78060    0  104 -102.69071 -100.78060  1.86%     -  497s
     0     0 -100.78060    0   91 -102.69071 -100.78060  1.86%     -  497s
     0     0 -100.78060    0   91 -102.69071 -100.78060  1.86%     -  497s
     0     0 -100.78060    0   92 -102.69071 -100.78060  1.86%     -  497s
     0     0 -101.01916    0  112 -102.69071 -101.01916  1.63%     -  498s
     0     0 -101.02443    0  112 -102.69071 -101.02443  1.62%     -  498s
     0     0 -101.03103    0  116 -102.69071 -101.03103  1.62%     -  498s
     0     0 -101.05261    0  116 -102.69071 -101.05261  1.60%     -  498s
     0     0 -101.05539    0  118 -102.69071 -101.05539  1.59%     -  498s
     0     0 -101.05539    0  120 -102.69071 -101.05539  1.59%     -  498s
     0     0 -101.11275    0  114 -102.69071 -101.11275  1.54%     -  499s
     0     0 -101.11553    0  119 -102.69071 -101.11553  1.53%     -  499s
     0     0 -101.11785    0  118 -102.69071 -101.11785  1.53%     -  499s
     0     0 -101.23349    0   92 -102.69071 -101.23349  1.42%     -  499s
     0     0 -101.23349    0   67 -102.69071 -101.23349  1.42%     -  500s
     0     0 -101.23349    0   89 -102.69071 -101.23349  1.42%     -  500s
     0     0 -101.23349    0   96 -102.69071 -101.23349  1.42%     -  500s
     0     0 -101.23349    0   91 -102.69071 -101.23349  1.42%     -  500s
     0     0 -101.23349    0   99 -102.69071 -101.23349  1.42%     -  500s
     0     0 -101.24914    0  101 -102.69071 -101.24914  1.40%     -  501s
     0     0 -101.24914    0  102 -102.69071 -101.24914  1.40%     -  501s
     0     0 -101.24914    0  102 -102.69071 -101.24914  1.40%     -  501s
     0     0 -101.25172    0  102 -102.69071 -101.25172  1.40%     -  501s
     0     0 -101.37859    0   93 -102.69071 -101.37859  1.28%     -  501s
     0     0 -101.38264    0   96 -102.69071 -101.38264  1.27%     -  501s
     0     0 -101.38281    0   97 -102.69071 -101.38281  1.27%     -  501s
     0     0 -101.41168    0   97 -102.69071 -101.41168  1.25%     -  501s
     0     0 -101.45453    0   86 -102.69071 -101.45453  1.20%     -  501s
     0     0 -101.45503    0   94 -102.69071 -101.45503  1.20%     -  501s
     0     0 -101.45503    0   98 -102.69071 -101.45503  1.20%     -  501s
     0     0 -101.85525    0   56 -102.69071 -101.85525  0.81%     -  502s
     0     0 -102.08891    0   52 -102.69071 -102.08891  0.59%     -  503s
     0     0 -102.08891    0   51 -102.69071 -102.08891  0.59%     -  503s
     0     0 -102.08891    0   34 -102.69071 -102.08891  0.59%     -  504s

Explored 1 nodes (25039 simplex iterations) in 504.44 seconds
Thread count was 1 (of 80 available processors)

Solution count 9: -102.691 -102.691 -102.691 ... -7005.91

Optimal solution found (tolerance 1.00e-04)
Best objective -1.026907127103e+02, best bound -1.026907127103e+02, gap 0.0000%
